NAME: n400q45E.tsp, 400 nodes, semilla 444
COMMENT: Problema aleatorio de norma euclidea
DIMENSION: 400
CAPACITY: 45
EDGE_WEIGHT_TYPE: EUC_2D
NODE_COORD_SECTION
1   0.0000   0.0000
2 152.0000 -11.0000
3 -319.0000 -425.0000
4  62.0000 -493.0000
5  28.0000 -462.0000
6 115.0000  65.0000
7 390.0000 220.0000
8 319.0000 -96.0000
9  54.0000 190.0000
10 -415.0000 -149.0000
11 142.0000 -95.0000
12 -352.0000 -79.0000
13 -72.0000  67.0000
14 491.0000 -385.0000
15 -319.0000 425.0000
16  12.0000 421.0000
17 157.0000 -354.0000
18 338.0000 336.0000
19 -477.0000 243.0000
20 495.0000 361.0000
21 -326.0000 424.0000
22 -377.0000 259.0000
23  12.0000 -215.0000
24 434.0000 386.0000
25 450.0000 -292.0000
26 -340.0000 467.0000
27 161.0000 210.0000
28 243.0000  -2.0000
29 115.0000 365.0000
30 -280.0000 -301.0000
31 -176.0000 -191.0000
32 -126.0000  36.0000
33 367.0000 -115.0000
34 -177.0000 -489.0000
35 200.0000  52.0000
36 461.0000 -200.0000
37 -444.0000 471.0000
38 296.0000 124.0000
39 -273.0000 485.0000
40 -100.0000 -200.0000
41 -396.0000 294.0000
42 -474.0000 -69.0000
43 -455.0000 -492.0000
44 134.0000   1.0000
45 -75.0000 163.0000
46 -128.0000 -382.0000
47  56.0000 -77.0000
48 -453.0000 -78.0000
49 -462.0000 284.0000
50 448.0000  90.0000
51 -433.0000 137.0000
52 367.0000 -480.0000
53 104.0000 343.0000
54 -305.0000 -54.0000
55 277.0000 136.0000
56 -291.0000 -432.0000
57   2.0000 -229.0000
58 352.0000 -261.0000
59 -112.0000 -49.0000
60 -286.0000 -496.0000
61  22.0000 408.0000
62 -319.0000 498.0000
63 -224.0000 -248.0000
64 318.0000  71.0000
65 238.0000 -206.0000
66 173.0000 257.0000
67 256.0000 -261.0000
68 -337.0000 -255.0000
69 -248.0000 -38.0000
70 -35.0000 -233.0000
71 488.0000 193.0000
72  53.0000 180.0000
73  63.0000 452.0000
74 -342.0000 -397.0000
75 -370.0000 402.0000
76 -353.0000 453.0000
77 303.0000 298.0000
78 236.0000 -243.0000
79 464.0000 224.0000
80 -484.0000   3.0000
81 196.0000 391.0000
82 -386.0000 253.0000
83 -21.0000 273.0000
84 -237.0000 -397.0000
85 -212.0000 -195.0000
86 367.0000 -463.0000
87 -40.0000 289.0000
88  92.0000 -278.0000
89 360.0000 -24.0000
90 -149.0000 219.0000
91 217.0000 -171.0000
92 -132.0000  87.0000
93 -249.0000 -479.0000
94 -255.0000 417.0000
95 -392.0000 138.0000
96 -27.0000 -162.0000
97 -397.0000  76.0000
98 202.0000 228.0000
99  -7.0000 -436.0000
100 284.0000 -482.0000
101 498.0000  75.0000
102 -408.0000 426.0000
103 139.0000 159.0000
104 -206.0000 348.0000
105 399.0000 240.0000
106 -307.0000 -268.0000
107 483.0000 -390.0000
108 -485.0000  13.0000
109 -114.0000  94.0000
110 303.0000 -208.0000
111 313.0000 -66.0000
112 489.0000 -471.0000
113  44.0000 409.0000
114 -205.0000 -449.0000
115 329.0000  75.0000
116 -350.0000 -22.0000
117  28.0000 -471.0000
118 -393.0000 352.0000
119 251.0000 -52.0000
120 326.0000 -423.0000
121 147.0000 396.0000
122 -170.0000 -36.0000
123 -37.0000  62.0000
124 226.0000 -327.0000
125 317.0000 -479.0000
126 -408.0000 -128.0000
127 458.0000  -3.0000
128 -400.0000 394.0000
129 333.0000 -99.0000
130 295.0000  39.0000
131 -133.0000 -89.0000
132 485.0000 -161.0000
133 -478.0000 -46.0000
134 -197.0000 -83.0000
135  63.0000 207.0000
136 -407.0000 -239.0000
137 -268.0000 387.0000
138 495.0000 493.0000
139 -190.0000 -156.0000
140 -390.0000 -430.0000
141 -117.0000  97.0000
142 410.0000 -133.0000
143 236.0000  47.0000
144 -422.0000 -182.0000
145 -88.0000 393.0000
146 -201.0000 258.0000
147  32.0000 -184.0000
148 -316.0000 -442.0000
149 -254.0000 388.0000
150 -307.0000 168.0000
151 -344.0000 -335.0000
152 -229.0000 -452.0000
153 443.0000 182.0000
154 -424.0000 341.0000
155 487.0000 -446.0000
156  83.0000 -424.0000
157 -416.0000 375.0000
158 214.0000 200.0000
159 -155.0000 -253.0000
160 -266.0000 250.0000
161 -315.0000 -19.0000
162 -13.0000 458.0000
163 -209.0000 -59.0000
164 345.0000 -347.0000
165 -66.0000 -337.0000
166 373.0000 137.0000
167 -43.0000 386.0000
168 236.0000 -279.0000
169 263.0000 236.0000
170 313.0000 -250.0000
171 466.0000 -104.0000
172 493.0000 -141.0000
173 117.0000 -70.0000
174 276.0000 -489.0000
175 -129.0000 -366.0000
176 -419.0000 -496.0000
177 482.0000 -216.0000
178 122.0000 334.0000
179 -343.0000 -385.0000
180 -398.0000 -291.0000
181 477.0000 -132.0000
182 -173.0000 304.0000
183 366.0000 145.0000
184 403.0000 362.0000
185 104.0000 333.0000
186 -471.0000 406.0000
187  68.0000 -481.0000
188 -40.0000 -45.0000
189 105.0000 131.0000
190 -476.0000 352.0000
191 -94.0000 420.0000
192 367.0000 230.0000
193 297.0000 -286.0000
194 126.0000 -435.0000
195 -12.0000 269.0000
196 -440.0000 447.0000
197 464.0000 115.0000
198 391.0000 365.0000
199 435.0000 -177.0000
200 -342.0000 -314.0000
201 -425.0000 -485.0000
202 473.0000 215.0000
203 155.0000 -57.0000
204 -429.0000 464.0000
205 -436.0000 -398.0000
206 237.0000 331.0000
207  84.0000 455.0000
208 -388.0000 -94.0000
209 -183.0000 404.0000
210  37.0000  49.0000
211 386.0000 280.0000
212  58.0000 -118.0000
213 -90.0000 307.0000
214  56.0000   0.0000
215 421.0000 -293.0000
216 351.0000 -330.0000
217 442.0000 308.0000
218 -22.0000 296.0000
219 138.0000  95.0000
220 -81.0000 354.0000
221 -258.0000 -242.0000
222 -184.0000 -336.0000
223 -377.0000 198.0000
224 -428.0000  78.0000
225 427.0000 -186.0000
226  16.0000 129.0000
227  66.0000 359.0000
228 442.0000 -371.0000
229  -9.0000 -395.0000
230 -369.0000 -199.0000
231 -37.0000 262.0000
232 -357.0000 192.0000
233 172.0000  32.0000
234  -7.0000 217.0000
235 -34.0000 -457.0000
236 -132.0000 -343.0000
237 280.0000 271.0000
238 -218.0000  87.0000
239 283.0000 -417.0000
240 470.0000 -112.0000
241 366.0000 -73.0000
242  39.0000 365.0000
243  21.0000 -69.0000
244 -210.0000 138.0000
245 347.0000 -39.0000
246 -420.0000 112.0000
247 478.0000  55.0000
248 358.0000 197.0000
249 -382.0000 336.0000
250 -407.0000 -470.0000
251 441.0000 265.0000
252 -286.0000 469.0000
253 -487.0000 -162.0000
254 237.0000 -448.0000
255 -98.0000 115.0000
256 -197.0000 -150.0000
257 410.0000 448.0000
258 274.0000 -467.0000
259 -214.0000 -476.0000
260 -312.0000 456.0000
261 243.0000 -187.0000
262 -49.0000 -275.0000
263 -75.0000 -169.0000
264 128.0000 461.0000
265 -130.0000  52.0000
266 201.0000 235.0000
267 370.0000 -126.0000
268 -440.0000  22.0000
269 474.0000 -53.0000
270 -291.0000 -309.0000
271 330.0000   9.0000
272 -197.0000 -229.0000
273 191.0000 408.0000
274 -64.0000  89.0000
275 -255.0000 -391.0000
276 -314.0000 -306.0000
277 -58.0000 164.0000
278 448.0000 -120.0000
279 -424.0000 -259.0000
280 -216.0000 361.0000
281 -361.0000 339.0000
282 -336.0000 -220.0000
283 -359.0000 397.0000
284 -56.0000 -155.0000
285 -415.0000 -427.0000
286 312.0000 121.0000
287 494.0000 -414.0000
288 -98.0000  59.0000
289  38.0000  96.0000
290 -102.0000 241.0000
291 -477.0000  -5.0000
292 -160.0000 334.0000
293 332.0000  36.0000
294 -410.0000  34.0000
295  15.0000  43.0000
296 -337.0000 -201.0000
297 -362.0000 381.0000
298 111.0000 -403.0000
299 -313.0000 -272.0000
300 -328.0000  64.0000
301 -264.0000 253.0000
302 276.0000 -96.0000
303 -365.0000 -427.0000
304 108.0000 -46.0000
305 -26.0000  56.0000
306 -80.0000 -355.0000
307 -409.0000 201.0000
308 480.0000 151.0000
309 -234.0000 -58.0000
310  91.0000 393.0000
311 139.0000 470.0000
312 -395.0000 120.0000
313 201.0000 -380.0000
314  94.0000 -434.0000
315 251.0000 475.0000
316  57.0000 -359.0000
317 207.0000 -222.0000
318 186.0000 -447.0000
319 -464.0000 -125.0000
320 324.0000 296.0000
321 184.0000 391.0000
322 -190.0000 405.0000
323 -267.0000 -148.0000
324 132.0000 -479.0000
325 -13.0000 185.0000
326 -291.0000 310.0000
327 -381.0000 -440.0000
328 186.0000 -339.0000
329 -405.0000 -483.0000
330 285.0000  15.0000
331 389.0000 -185.0000
332 -389.0000 134.0000
333 -492.0000 -35.0000
334  50.0000 333.0000
335 293.0000 267.0000
336  32.0000 221.0000
337 -221.0000 -75.0000
338 -432.0000 -159.0000
339 277.0000 -21.0000
340 -170.0000 188.0000
341 -29.0000 -139.0000
342 325.0000 -110.0000
343 207.0000 -207.0000
344 -282.0000 125.0000
345 -455.0000 -437.0000
346 -292.0000  25.0000
347 -66.0000 -132.0000
348 -346.0000 -63.0000
349 -223.0000 422.0000
350 -76.0000 187.0000
351 -454.0000 166.0000
352 -90.0000 -231.0000
353 -433.0000 -189.0000
354  10.0000 490.0000
355 328.0000 -209.0000
356 108.0000 425.0000
357  87.0000 -444.0000
358  10.0000 -316.0000
359 432.0000 -408.0000
360 248.0000 -417.0000
361 -59.0000 268.0000
362 -262.0000 354.0000
363 -203.0000 393.0000
364 -63.0000 -263.0000
365 382.0000 244.0000
366 -248.0000 -494.0000
367 248.0000 -68.0000
368 375.0000 -260.0000
369  52.0000 -311.0000
370 -161.0000 -130.0000
371 -163.0000 -401.0000
372 239.0000 -362.0000
373 -138.0000 180.0000
374 350.0000 459.0000
375 436.0000 -50.0000
376 330.0000 -363.0000
377 366.0000 -296.0000
378 -360.0000 211.0000
379 202.0000 -441.0000
380 485.0000 125.0000
381 313.0000 320.0000
382 133.0000 204.0000
383 -106.0000 260.0000
384 347.0000  70.0000
385 363.0000 -242.0000
386 -120.0000 -353.0000
387 -467.0000 -340.0000
388 462.0000  68.0000
389 -176.0000 -403.0000
390 -113.0000 201.0000
391 -162.0000 -197.0000
392 250.0000 254.0000
393 -204.0000 -104.0000
394 -433.0000 -211.0000
395 150.0000 -59.0000
396  58.0000 223.0000
397 -204.0000 329.0000
398 485.0000 -432.0000
399  60.0000 -209.0000
400 249.0000 -472.0000
DISPLAY_DATA_SECTION:
 1  250  250
 2  326  244
 3   90   37
 4  281    3
 5  264   19
 6  307  282
 7  445  360
 8  409  202
 9  277  345
10   42  175
11  321  202
12   74  210
13  214  283
14  495   57
15   90  462
16  256  460
17  328   73
18  419  418
19   11  371
20  497  430
21   87  462
22   61  379
23  256  142
24  467  443
25  475  104
26   80  483
27  330  355
28  371  249
29  307  432
30  110   99
31  162  154
32  187  268
33  433  192
34  161    5
35  350  276
36  480  150
37   28  485
38  398  312
39  113  492
40  200  150
41   52  397
42   13  215
43   22    4
44  317  250
45  212  331
46  186   59
47  278  211
48   23  211
49   19  392
50  474  295
51   33  318
52  433   10
53  302  421
54   97  223
55  388  318
56  104   34
57  251  135
58  426  119
59  194  225
60  107    2
61  261  454
62   90  499
63  138  126
64  409  285
65  369  147
66  336  378
67  378  119
68   81  122
69  126  231
70  232  133
71  494  346
72  276  340
73  281  476
74   79   51
75   65  451
76   73  476
77  401  399
78  368  128
79  482  362
80    8  251
81  348  445
82   57  376
83  239  386
84  131   51
85  144  152
86  433   18
87  230  394
88  296  111
89  430  238
90  175  359
91  358  164
92  184  293
93  125   10
94  122  458
95   54  319
96  236  169
97   51  288
98  351  364
99  246   32
100  392    9
101  499  287
102   46  463
103  319  329
104  147  424
105  449  370
106   96  116
107  491   55
108    7  256
109  193  297
110  401  146
111  406  217
112  494   14
113  272  454
114  147   25
115  414  287
116   75  239
117  264   14
118   53  426
119  375  224
120  413   38
121  323  448
122  165  232
123  231  281
124  363   86
125  408   10
126   46  186
127  479  248
128   50  447
129  416  200
130  397  269
131  183  205
132  492  169
133   11  227
134  151  208
135  281  353
136   46  130
137  116  443
138  497  496
139  155  172
140   55   35
141  191  298
142  455  183
143  368  273
144   39  159
145  206  446
146  149  379
147  266  158
148   92   29
149  123  444
150   96  334
151   78   82
152  135   24
153  471  341
154   38  420
155  493   27
156  291   38
157   42  437
158  357  350
159  172  123
160  117  375
161   92  240
162  243  479
163  145  220
164  422   76
165  217   81
166  436  318
167  228  443
168  368  110
169  381  368
170  406  125
171  483  198
172  496  179
173  308  215
174  388    5
175  185   67
176   40    2
177  491  142
178  311  417
179   78   57
180   51  104
181  488  184
182  163  402
183  433  322
184  451  431
185  302  416
186   14  453
187  284    9
188  230  227
189  302  315
190   12  426
191  203  460
192  433  365
193  398  107
194  313   32
195  244  384
196   30  473
197  482  307
198  445  432
199  467  161
200   79   93
201   37    7
202  486  357
203  327  221
204   35  482
205   32   51
206  368  415
207  292  477
208   56  203
209  158  452
210  268  274
211  443  390
212  279  191
213  205  403
214  278  250
215  460  103
216  425   85
217  471  404
218  239  398
219  319  297
220  209  427
221  121  129
222  158   82
223   61  349
224   36  289
225  463  157
226  258  314
227  283  429
228  471   64
229  245   52
230   65  150
231  231  381
232   71  346
233  336  266
234  246  358
235  233   21
236  184   78
237  390  385
238  141  293
239  391   41
240  485  194
241  433  213
242  269  432
243  260  215
244  145  319
245  423  230
246   40  306
247  489  277
248  429  348
249   59  418
250   46   15
251  470  382
252  107  484
253    6  169
254  368   26
255  201  307
256  151  175
257  455  474
258  387   16
259  143   12
260   94  478
261  371  156
262  225  112
263  212  165
264  314  480
265  185  276
266  350  367
267  435  187
268   30  261
269  487  223
270  104   95
271  415  254
272  151  135
273  345  454
274  218  294
275  122   54
276   93   97
277  221  332
278  474  190
279   38  120
280  142  430
281   69  419
282   82  140
283   70  448
284  222  172
285   42   36
286  406  310
287  497   43
288  201  279
289  269  298
290  199  370
291   11  247
292  170  417
293  416  268
294   45  267
295  257  271
296   81  149
297   69  440
298  305   48
299   93  114
300   86  282
301  118  376
302  388  202
303   67   36
304  304  227
305  237  278
306  210   72
307   45  350
308  490  325
309  133  221
310  295  446
311  319  485
312   52  310
313  350   60
314  297   33
315  375  487
316  278   70
317  353  139
318  343   26
319   18  187
320  412  398
321  342  445
322  155  452
323  116  176
324  316   10
325  243  342
326  104  405
327   59   30
328  343   80
329   47    8
330  392  257
331  444  157
332   55  317
333    4  232
334  275  416
335  396  383
336  266  360
337  139  212
338   34  170
339  388  239
340  165  344
341  235  180
342  412  195
343  353  146
344  109  312
345   22   31
346  104  262
347  217  184
348   77  218
349  138  461
350  212  343
351   23  333
352  205  134
353   33  155
354  255  495
355  414  145
356  304  462
357  293   28
358  255   92
359  466   46
360  374   41
361  220  384
362  119  427
363  148  446
364  218  118
365  441  372
366  126    3
367  374  216
368  437  120
369  276   94
370  169  185
371  168   49
372  369   69
373  181  340
374  425  479
375  468  225
376  415   68
377  433  102
378   70  355
379  351   29
380  492  312
381  406  410
382  316  352
383  197  380
384  423  285
385  431  129
386  190   73
387   16   80
388  481  284
389  162   48
390  193  350
391  169  151
392  375  377
393  148  198
394   33  144
395  325  220
396  279  361
397  148  414
398  492   34
399  280  145
400  374   14
DEMAND_SECTION
1 6
2 1
3 9
4 0
5 3
6 -2
7 -6
8 6
9 7
10 -2
11 2
12 7
13 -1
14 -3
15 3
16 0
17 2
18 -6
19 -10
20 3
21 1
22 7
23 -3
24 0
25 -9
26 -9
27 8
28 0
29 -3
30 -6
31 4
32 6
33 -6
34 -7
35 9
36 -6
37 -10
38 -6
39 5
40 7
41 6
42 4
43 4
44 1
45 -9
46 -10
47 2
48 -8
49 0
50 -4
51 2
52 0
53 -9
54 -10
55 1
56 2
57 9
58 -9
59 -5
60 6
61 6
62 5
63 5
64 0
65 8
66 -6
67 -5
68 -6
69 6
70 8
71 10
72 -5
73 10
74 0
75 3
76 -7
77 -9
78 8
79 6
80 9
81 0
82 -5
83 -5
84 -1
85 -6
86 -4
87 0
88 7
89 -4
90 -7
91 -8
92 0
93 2
94 10
95 9
96 -6
97 -4
98 -4
99 2
100 3
101 -3
102 2
103 -8
104 -10
105 4
106 4
107 7
108 -4
109 -1
110 -10
111 8
112 5
113 8
114 -9
115 -6
116 3
117 -4
118 -1
119 8
120 -8
121 -5
122 -10
123 -5
124 -3
125 1
126 -5
127 0
128 -2
129 -2
130 8
131 7
132 -5
133 -7
134 7
135 0
136 -7
137 5
138 7
139 3
140 8
141 -5
142 -9
143 -7
144 2
145 -4
146 -7
147 -6
148 7
149 2
150 4
151 -3
152 -10
153 6
154 2
155 -8
156 7
157 -5
158 -7
159 9
160 6
161 7
162 8
163 1
164 5
165 8
166 -6
167 4
168 9
169 5
170 -3
171 1
172 0
173 4
174 -6
175 9
176 -6
177 3
178 5
179 -3
180 -6
181 -4
182 -7
183 5
184 -5
185 4
186 -7
187 -9
188 3
189 9
190 0
191 3
192 6
193 -4
194 3
195 -5
196 3
197 1
198 0
199 4
200 -1
201 4
202 -5
203 0
204 -5
205 -1
206 -7
207 -2
208 0
209 5
210 -9
211 -9
212 0
213 2
214 8
215 -4
216 1
217 -8
218 1
219 8
220 -7
221 6
222 -8
223 5
224 5
225 0
226 -4
227 4
228 7
229 -3
230 -6
231 -8
232 -4
233 -8
234 -7
235 8
236 10
237 0
238 -4
239 -3
240 -6
241 6
242 7
243 -3
244 -4
245 -9
246 3
247 10
248 -6
249 -2
250 -6
251 4
252 4
253 -3
254 -4
255 -7
256 6
257 -2
258 8
259 5
260 0
261 4
262 -6
263 2
264 3
265 -3
266 -2
267 4
268 2
269 -5
270 -6
271 9
272 10
273 3
274 -3
275 -4
276 3
277 2
278 8
279 -3
280 0
281 10
282 2
283 -8
284 1
285 7
286 7
287 -5
288 -10
289 7
290 -2
291 0
292 -3
293 8
294 0
295 5
296 -3
297 -5
298 0
299 -6
300 4
301 -3
302 -1
303 5
304 7
305 3
306 -9
307 -6
308 2
309 -6
310 8
311 -5
312 -8
313 -10
314 -10
315 -2
316 8
317 5
318 2
319 1
320 1
321 5
322 6
323 0
324 -8
325 -6
326 -3
327 5
328 -8
329 0
330 -2
331 -6
332 6
333 4
334 -4
335 0
336 8
337 0
338 0
339 -9
340 -2
341 -6
342 -5
343 3
344 -9
345 8
346 -1
347 -7
348 8
349 -8
350 -7
351 3
352 -9
353 0
354 7
355 -2
356 4
357 -2
358 9
359 7
360 8
361 9
362 6
363 -5
364 -6
365 -1
366 1
367 8
368 -5
369 8
370 6
371 -5
372 7
373 9
374 8
375 1
376 3
377 -3
378 -4
379 7
380 2
381 6
382 -9
383 4
384 0
385 4
386 4
387 -1
388 5
389 0
390 -9
391 -8
392 -7
393 5
394 6
395 -3
396 1
397 2
398 -2
399 7
400 -1
EOF